 200 36 
 30 95 46 80 11 17 16 95 15 41 77 48 
 55 52 46 26 88 73 84 73 30 61 8 47 
 82 40 66 19 69 71 74 59 84 88 58 26 
 
 6 
 10 20 22 23 28 35 
 11 
 1 3 7 12 14 18 30 31 32 34 36 
 5 
 9 10 17 19 27 
 23 
 2 3 4 5 7 8 9 10 12 13 16 17 
 18 19 22 23 25 26 27 29 30 32 33 
 17 
 3 5 9 10 14 15 16 17 18 20 21 22 
 27 28 29 30 33 
 4 
 3 20 28 34 
 2 
 11 18 
 9 
 3 11 20 23 24 26 27 34 35 
 12 
 1 3 7 9 10 16 17 19 22 28 33 36 
 36 
 1 2 3 4 5 6 7 8 9 10 11 12 
 13 14 15 16 17 18 19 20 21 22 23 24 
 25 26 27 28 29 30 31 32 33 34 35 36 
 2 
 1 18 
 33 
 1 2 3 4 5 6 7 8 9 11 12 13 
 14 16 17 18 19 20 22 23 24 25 26 27 
 28 29 30 31 32 33 34 35 36 
 10 
 1 5 7 9 12 27 31 34 35 36 
 30 
 1 2 3 4 5 6 7 9 10 11 12 13 
 14 15 16 18 20 21 22 23 24 25 27 28 
 29 30 31 32 33 35 
 32 
 1 2 3 4 5 6 7 8 9 10 11 12 
 13 14 16 18 19 20 21 22 23 25 26 27 
 28 29 31 32 33 34 35 36 
 19 
 1 3 6 9 11 15 16 18 21 22 24 25 
 27 29 30 32 33 34 35 
 9 
 2 4 5 7 10 21 24 31 32 
 11 
 4 5 7 9 14 15 17 23 25 29 36 
 10 
 2 3 4 5 7 15 16 19 21 31 
 3 
 14 15 23 
 36 
 1 2 3 4 5 6 7 8 9 10 11 12 
 13 14 15 16 17 18 19 20 21 22 23 24 
 25 26 27 28 29 30 31 32 33 34 35 36 
 24 
 1 2 3 4 8 9 10 12 13 14 15 16 
 17 18 19 20 22 24 27 28 29 30 34 35 
 19 
 1 2 3 4 8 9 11 12 14 15 17 19 
 22 24 25 30 31 32 33 
 5 
 3 16 28 32 36 
 26 
 1 2 3 4 5 6 8 9 10 11 13 14 
 15 16 17 19 20 21 22 24 27 28 30 32 
 33 34 
 20 
 1 3 4 6 7 8 9 10 11 12 14 23 
 24 25 27 30 31 32 33 35 
 19 
 3 4 6 8 10 11 12 13 14 15 16 18 
 26 29 30 31 32 33 34 
 16 
 1 2 5 6 9 13 17 18 19 20 22 24 
 26 28 31 35 
 2 
 20 31 
 5 
 14 20 24 34 36 
 9 
 1 6 7 10 12 15 16 17 19 
 18 
 2 7 8 11 13 15 16 17 18 19 20 21 
 22 24 26 30 31 36 
 9 
 1 4 8 11 17 22 24 25 27 
 29 
 1 2 3 4 6 7 8 9 12 13 14 15 
 16 17 18 19 20 21 22 23 24 28 29 30 
 31 32 33 35 36 
 31 
 1 2 4 5 6 7 8 9 10 11 13 14 
 15 16 17 18 19 20 21 22 24 26 28 29 
 30 31 32 33 34 35 36 
 3 
 12 15 22 
 4 
 2 7 13 19 
 29 
 2 4 5 6 8 9 10 11 12 13 14 15 
 16 17 19 20 21 22 23 25 26 28 29 31 
 32 33 34 35 36 
 23 
 1 2 5 6 7 13 15 18 20 21 22 23 
 24 25 26 27 28 30 32 33 34 35 36 
 13 
 1 3 4 6 7 9 11 14 15 16 19 20 
 30 
 28 
 1 2 3 4 5 6 9 10 11 12 14 15 
 16 18 19 21 22 23 24 25 26 27 29 30 
 32 34 35 36 
 21 
 1 4 8 9 12 13 14 16 18 19 20 21 
 25 26 27 28 29 32 33 34 35 
 17 
 4 5 6 10 14 15 17 18 19 20 21 22 
 23 25 29 31 34 
 30 
 1 2 4 5 6 7 8 9 10 12 14 15 
 17 18 19 20 21 22 23 24 25 26 27 29 
 30 32 33 34 35 36 
 16 
 6 9 10 12 13 14 17 20 25 27 28 29 
 30 31 33 35 
 3 
 18 26 34 
 23 
 1 2 4 5 6 9 10 11 12 13 15 16 
 18 19 22 24 25 26 27 29 30 32 35 
 26 
 2 3 5 6 7 8 9 10 11 12 13 14 
 17 18 19 20 21 22 23 24 25 28 29 30 
 32 34 
 27 
 1 3 5 6 7 8 9 11 12 13 14 16 
 17 20 21 22 24 25 26 27 28 30 32 33 
 34 35 36 
 28 
 1 3 4 7 8 10 11 13 15 17 18 19 
 20 21 22 23 24 25 26 27 28 29 30 31 
 32 33 34 36 
 13 
 1 2 4 6 7 8 11 15 18 22 28 34 
 35 
 28 
 1 2 3 4 5 6 7 8 9 10 11 12 
 14 15 16 17 18 19 21 22 23 25 26 28 
 32 33 34 36 
 28 
 1 2 3 4 6 7 8 9 10 11 13 14 
 15 17 18 20 23 24 25 26 27 29 30 31 
 32 34 35 36 
 25 
 1 3 5 7 8 9 11 13 15 16 17 18 
 20 22 23 24 25 26 28 29 30 31 33 34 
 36 
 21 
 1 2 4 5 7 8 9 12 13 14 15 18 
 21 25 27 28 29 30 33 35 36 
 30 
 1 4 5 6 7 8 9 10 12 13 14 15 
 16 17 19 20 21 22 24 25 26 27 28 29 
 30 31 32 34 35 36 
 10 
 2 3 5 10 19 20 26 29 33 35 
 25 
 1 2 4 5 6 7 8 10 11 12 14 15 
 16 17 19 21 23 25 26 27 30 31 32 33 
 34 
 18 
 3 4 5 8 11 12 14 17 18 19 20 21 
 22 24 26 29 32 36 
 5 
 4 10 19 26 33 
 8 
 2 3 4 10 18 21 27 28 
 32 
 1 3 4 5 6 7 8 9 10 12 13 14 
 15 16 17 18 19 20 21 22 23 24 25 26 
 27 28 29 30 32 33 34 35 
 28 
 1 4 5 6 7 8 9 10 11 12 13 14 
 16 17 18 19 20 22 24 25 26 27 28 30 
 31 33 34 36 
 14 
 2 9 12 15 22 23 24 26 27 29 30 31 
 32 35 
 21 
 2 3 5 6 7 8 9 10 12 14 16 17 
 18 19 20 22 23 32 34 35 36 
 7 
 1 8 10 17 25 27 33 
 17 
 1 2 3 4 5 6 8 13 17 21 22 24 
 25 27 28 30 32 
 28 
 1 2 3 5 6 8 10 11 13 14 18 19 
 20 21 22 23 24 25 26 27 28 29 31 32 
 33 34 35 36 
 33 
 1 2 3 4 5 6 8 9 10 11 12 13 
 14 15 16 17 18 19 20 21 22 24 25 26 
 27 28 29 30 31 32 33 34 36 
 17 
 2 4 5 6 8 9 11 12 16 21 23 28 
 29 31 33 34 35 
 7 
 3 11 19 22 27 30 34 
 9 
 2 4 8 14 18 24 29 33 35 
 9 
 6 10 16 18 23 25 27 29 31 
 25 
 1 2 5 6 7 8 10 11 12 13 14 17 
 18 20 21 22 26 27 28 30 31 32 34 35 
 36 
 5 
 1 3 7 8 36 
 7 
 3 5 9 17 19 25 28 
 25 
 1 3 4 5 8 10 11 12 13 14 15 16 
 17 18 19 23 25 28 30 31 32 33 34 35 
 36 
 5 
 3 4 8 11 19 
 13 
 1 6 12 15 16 17 19 24 27 28 30 32 
 36 
 32 
 1 2 3 4 5 6 7 8 9 10 11 13 
 15 16 17 18 19 20 21 22 23 24 25 26 
 27 28 29 30 32 33 34 36 
 15 
 1 3 4 5 6 7 9 17 18 23 24 25 
 28 30 35 
 7 
 4 8 13 19 25 34 35 
 24 
 1 2 3 4 5 7 9 11 12 13 16 21 
 23 24 25 26 28 29 30 31 32 33 35 36 
 27 
 2 4 5 6 7 8 9 11 12 13 14 15 
 16 17 18 20 21 22 24 26 27 28 29 31 
 33 34 36 
 9 
 5 9 10 13 16 20 24 28 31 
 35 
 1 2 3 4 5 6 7 8 9 10 11 12 
 13 14 15 16 17 18 20 21 22 23 24 25 
 26 27 28 29 30 31 32 33 34 35 36 
 29 
 1 2 3 4 5 6 8 9 12 14 15 17 
 18 19 20 21 22 24 25 26 27 28 30 31 
 32 33 34 35 36 
 18 
 4 5 6 7 8 9 14 15 19 22 23 24 
 25 26 33 34 35 36 
 30 
 1 2 3 5 6 7 8 9 10 11 12 13 
 14 15 16 17 18 19 20 21 22 24 25 26 
 27 29 32 33 34 35 
 5 
 3 7 28 30 32 
 8 
 2 4 10 12 17 22 25 29 
 31 
 1 2 3 4 5 6 7 8 9 10 11 13 
 14 18 19 20 22 23 24 25 26 27 28 29 
 30 31 32 33 34 35 36 
 2 
 9 34 
 10 
 6 8 10 13 17 26 28 31 33 35 
 28 
 1 4 5 7 8 10 11 12 13 14 16 17 
 18 20 21 22 23 24 25 26 27 28 29 30 
 31 32 35 36 
 21 
 1 6 7 8 9 11 13 14 17 18 20 21 
 22 26 28 29 30 31 32 33 35 
 22 
 1 4 5 6 8 10 13 14 15 16 18 19 
 20 21 23 24 26 27 28 31 32 36 
 27 
 1 3 4 5 6 8 9 11 12 13 14 15 
 16 17 19 20 22 24 25 26 27 29 30 31 
 32 33 36 
 31 
 1 2 3 5 6 7 8 9 10 11 13 14 
 17 18 19 20 21 22 23 24 25 26 27 28 
 29 30 31 32 34 35 36 
 35 
 1 2 3 4 5 6 7 8 9 11 12 13 
 14 15 16 17 18 19 20 21 22 23 24 25 
 26 27 28 29 30 31 32 33 34 35 36 
 32 
 1 4 6 7 8 9 10 11 12 13 14 15 
 16 18 19 20 21 22 23 24 25 26 27 28 
 29 30 31 32 33 34 35 36 
 19 
 1 2 3 4 7 9 13 14 15 16 18 19 
 20 23 26 27 30 31 35 
 21 
 1 3 5 6 7 8 9 12 13 14 15 17 
 18 19 20 25 27 30 31 32 35 
 25 
 1 3 4 5 7 9 10 11 13 14 16 17 
 18 19 22 24 26 27 28 29 31 32 33 34 
 35 
 7 
 9 16 19 23 24 31 32 
 20 
 2 5 8 10 11 12 13 14 15 17 19 21 
 22 25 26 27 29 30 35 36 
 34 
 1 2 3 4 5 6 7 8 9 10 11 12 
 13 14 15 16 17 18 19 20 21 22 23 24 
 25 26 27 28 29 30 31 34 35 36 
 36 
 1 2 3 4 5 6 7 8 9 10 11 12 
 13 14 15 16 17 18 19 20 21 22 23 24 
 25 26 27 28 29 30 31 32 33 34 35 36 
 20 
 1 5 7 8 9 11 12 13 14 15 17 18 
 21 22 25 26 28 30 32 35 
 7 
 6 7 10 17 23 30 33 
 29 
 2 4 6 7 8 9 10 11 12 13 15 16 
 17 18 19 21 23 24 25 26 27 28 29 30 
 31 32 33 34 36 
 4 
 2 11 30 36 
 17 
 2 5 6 7 10 12 14 16 18 20 23 25 
 27 29 30 32 35 
 18 
 2 3 5 7 8 9 11 12 14 17 19 21 
 24 25 26 27 30 33 
 9 
 3 5 8 9 11 22 24 31 36 
 25 
 4 5 6 7 10 11 12 13 15 16 18 19 
 20 21 22 26 27 29 30 31 32 33 34 35 
 36 
 19 
 2 3 4 6 8 9 10 11 14 15 17 18 
 21 22 23 25 33 34 36 
 6 
 1 3 10 17 18 27 
 18 
 2 6 10 12 15 16 17 19 22 24 26 27 
 28 29 32 33 34 35 
 16 
 1 2 4 5 11 13 15 19 23 25 26 27 
 29 30 33 36 
 26 
 1 2 4 6 8 9 11 12 13 14 16 17 
 18 19 20 22 23 24 28 29 30 31 32 33 
 34 35 
 13 
 1 7 8 11 18 24 25 28 30 31 33 34 
 36 
 14 
 1 3 7 10 12 13 17 20 21 22 25 26 
 30 33 
 26 
 2 4 6 7 8 9 15 16 17 18 19 20 
 21 22 23 24 25 26 27 28 29 32 33 34 
 35 36 
 10 
 2 6 7 8 10 22 23 25 26 34 
 15 
 2 3 5 9 10 11 13 15 24 26 28 29 
 30 35 36 
 12 
 7 14 15 20 23 24 26 28 29 32 33 34 
 6 
 3 5 7 12 24 35 
 18 
 1 10 12 14 17 18 19 20 21 23 24 26 
 27 30 32 33 35 36 
 24 
 1 2 3 4 6 8 10 11 12 13 14 16 
 17 19 20 21 25 26 28 30 31 34 35 36 
 29 
 1 3 4 5 6 7 8 9 10 11 12 15 
 16 17 18 19 20 22 25 26 27 28 29 30 
 31 32 33 35 36 
 17 
 4 5 11 12 15 16 18 20 22 25 27 28 
 30 32 33 35 36 
 32 
 1 2 3 4 5 6 7 8 9 11 12 13 
 14 15 17 18 19 20 21 22 23 24 25 27 
 28 30 31 32 33 34 35 36 
 15 
 2 4 5 6 8 9 10 11 13 16 21 25 
 26 27 35 
 31 
 1 2 4 5 6 8 9 10 11 13 14 16 
 17 18 19 20 21 22 23 24 25 26 27 28 
 29 30 31 32 33 34 36 
 31 
 1 2 3 4 5 6 7 8 9 11 12 13 
 15 17 18 19 20 22 23 24 25 26 28 29 
 30 31 32 33 34 35 36 
 6 
 5 11 14 18 23 35 
 20 
 1 3 4 5 6 8 10 12 13 15 17 18 
 24 25 27 28 29 30 33 34 
 23 
 1 3 6 8 10 11 12 13 16 18 19 20 
 21 22 24 25 26 27 28 29 31 32 34 
 17 
 1 3 5 8 12 16 17 20 21 23 25 26 
 29 31 33 35 36 
 12 
 7 8 10 11 13 17 18 21 25 26 32 36 
 32 
 1 2 3 4 5 6 8 9 10 11 12 14 
 15 16 17 19 20 21 23 24 25 26 27 28 
 29 30 31 32 33 34 35 36 
 5 
 17 28 31 35 36 
 13 
 6 8 9 10 20 22 23 24 27 31 32 33 
 36 
 24 
 1 2 3 5 7 8 9 11 13 14 15 16 
 17 19 20 23 25 27 29 30 31 33 34 35 
 15 
 2 5 9 11 12 13 14 15 18 21 23 25 
 27 29 33 
 3 
 9 30 33 
 2 
 8 15 
 25 
 2 3 4 5 6 7 8 9 11 12 13 14 
 17 18 19 22 25 27 28 29 32 33 34 35 
 36 
 32 
 1 2 3 4 5 6 8 9 10 11 12 13 
 14 15 16 17 18 19 20 21 22 23 25 26 
 27 28 29 30 32 33 34 35 
 24 
 3 4 5 6 7 12 13 15 16 17 19 22 
 23 24 25 26 28 30 31 32 33 34 35 36 
 15 
 1 2 3 5 7 11 12 13 15 19 20 21 
 24 27 34 
 16 
 1 2 3 4 5 6 9 10 11 12 14 17 
 18 25 31 36 
 13 
 4 5 10 13 17 20 21 22 23 24 33 34 
 36 
 19 
 1 7 8 9 10 11 13 14 15 16 17 18 
 21 22 23 28 31 33 36 
 21 
 1 2 3 4 6 8 9 10 11 14 15 17 
 18 19 22 24 26 32 33 35 36 
 20 
 1 2 3 7 8 11 12 13 15 17 18 19 
 21 22 25 26 27 33 34 36 
 11 
 4 8 9 14 16 17 18 25 32 33 34 
 18 
 1 2 3 7 10 11 13 15 16 22 23 25 
 27 28 30 31 34 35 
 29 
 1 2 3 4 5 6 7 9 11 13 14 15 
 16 17 18 19 20 21 22 26 27 28 29 30 
 31 32 34 35 36 
 4 
 15 16 18 22 
 26 
 1 2 3 5 6 7 9 10 12 14 15 16 
 22 24 25 26 27 28 29 30 31 32 33 34 
 35 36 
 18 
 3 6 7 9 12 15 16 17 18 19 20 24 
 28 30 31 32 34 36 
 35 
 1 2 3 4 5 6 7 8 9 10 11 12 
 13 14 15 16 17 18 19 20 21 22 23 24 
 25 26 27 28 29 30 31 33 34 35 36 
 19 
 4 5 6 7 12 14 15 17 18 19 21 24 
 25 26 28 32 34 35 36 
 3 
 29 30 36 
 9 
 2 3 7 9 14 15 18 28 33 
 36 
 1 2 3 4 5 6 7 8 9 10 11 12 
 13 14 15 16 17 18 19 20 21 22 23 24 
 25 26 27 28 29 30 31 32 33 34 35 36 
 33 
 2 3 4 5 7 8 9 10 11 12 13 14 
 15 16 17 19 20 21 22 23 24 25 26 27 
 28 29 30 31 32 33 34 35 36 
 21 
 1 3 4 6 7 9 11 12 15 20 22 24 
 25 27 28 30 31 33 34 35 36 
 32 
 1 2 3 5 6 7 8 9 10 11 12 13 
 14 15 16 17 18 19 20 22 23 24 25 27 
 28 29 30 31 32 34 35 36 
 24 
 1 2 4 5 6 7 8 9 11 14 16 17 
 18 20 22 23 25 26 27 31 32 33 34 36 
 17 
 1 2 6 7 8 9 11 15 17 18 19 20 
 24 29 30 31 32 
 29 
 1 2 3 5 6 7 8 9 10 12 13 14 
 15 18 19 20 21 22 23 24 26 27 28 29 
 32 33 34 35 36 
 5 
 9 21 23 27 29 
 17 
 2 5 6 7 9 10 11 12 17 19 20 21 
 22 30 31 33 36 
 8 
 1 2 8 9 11 16 21 30 
 12 
 2 3 4 14 18 23 25 27 29 30 32 33 
 31 
 1 2 3 4 6 7 8 10 11 12 14 15 
 16 17 18 19 20 21 22 23 24 26 27 28 
 29 30 31 32 33 34 35 
 21 
 3 6 8 9 10 11 12 13 14 15 18 19 
 20 21 24 25 26 27 31 33 35 
 22 
 1 4 6 7 10 12 13 14 15 16 18 19 
 20 21 22 25 26 27 28 32 33 35 
 7 
 2 5 18 25 29 31 36 
 17 
 3 6 7 9 10 15 16 17 18 21 23 24 
 26 27 28 31 36 
 21 
 1 3 5 6 8 10 11 12 16 17 18 19 
 20 21 23 26 27 28 30 32 33 
 30 
 1 2 3 4 5 6 7 9 10 11 13 14 
 15 16 17 20 21 22 23 24 25 27 28 29 
 31 32 33 34 35 36 
 21 
 1 2 4 6 7 10 14 15 16 17 18 21 
 22 23 26 28 29 30 33 35 36 
 11 
 1 3 4 7 9 19 21 22 23 25 26 
 27 
 1 2 3 5 6 7 9 10 11 12 13 15 
 16 17 20 22 24 26 27 28 29 30 31 32 
 33 34 36 
 3 
 6 13 36 
 3 
 4 16 34 
 36 
 1 2 3 4 5 6 7 8 9 10 11 12 
 13 14 15 16 17 18 19 20 21 22 23 24 
 25 26 27 28 29 30 31 32 33 34 35 36 
 20 
 1 2 3 4 6 8 10 11 12 16 17 18 
 20 21 23 24 30 33 34 36 
 4 
 3 9 19 31 
 12 
 1 2 6 8 9 13 18 20 21 28 31 34 
 15 
 3 4 9 13 14 15 16 19 20 22 24 26 
 28 33 36 
 5 
 3 7 13 18 33 
 12 
 1 2 6 11 12 18 19 21 24 30 31 36 
 9 
 1 5 6 7 10 19 21 30 36 
 13 
 1 2 4 5 12 17 18 21 25 26 28 31 
 35 
 36 
 1 2 3 4 5 6 7 8 9 10 11 12 
 13 14 15 16 17 18 19 20 21 22 23 24 
 25 26 27 28 29 30 31 32 33 34 35 36 
 